\ Model mip1
\ LP format - for model browsing. Use MPS format to capture full model detail.
Maximize
  0.385251601278785 f(x_0) + 0.4925527703383134 f(x_1)
   + 0.340463502864057 f(x_2) + 0.7239103086986169 f(x_3)
   + 0.6425490784860115 f(x_4) + 0.258744871636003 f(x_5)
   + 0.5040498192663072 f(x_6) + 0.2604175440298411 f(x_7)
   + 0.445950684925873 f(x_8) + 0.613673730798599 f(x_9)
   + 0.448398666720321 f(x_10) + 0.7127125280372175 f(x_11)
   + 0.6130311608525247 f(x_12) + 0.4331935882255384 f(x_13)
   + 0.5751516556778917 f(x_14) + 0.6728644028477213 f(x_15)
   + 0.6079862981889175 f(x_16) + 0.3446382333577815 f(x_17)
   + 0.6729204291433548 f(x_18) + 0.5707645736285685 f(x_19)
   + 0.4135993189806772 f(x_20) + 0.291007431928094 f(x_21)
   + 0.379763075273154 f(x_22) + 0.5861444492830994 f(x_23)
   + 0.525861363071387 f(x_24) + 0.329221626454123 f(x_25)
   + 0.7349314345813608 f(x_26) + 0.7230162784947121 f(x_27)
   + 0.4307644206729749 f(x_28) + 0.4298169472587518 f(x_29)
   + 0.6880605217197169 f(x_30) + 0.3917537620833727 f(x_31)
   + 0.7203379278985536 f(x_32) + 0.739366861176238 f(x_33)
   + 0.5126174664677705 f(x_34) + 0.5510292747423832 f(x_35)
   + 0.3900997879105455 f(x_36) + 0.4691702786808796 f(x_37)
   + 0.6775566171503307 f(x_38) + 0.736807138289701 f(x_39)
   + 0.5135410045440385 f(x_40) + 0.6680627984624605 f(x_41)
   + 0.4610339983535969 f(x_42) + 0.3286584437874338 f(x_43)
   + 0.3695448032056776 f(x_44) + 0.621116150977806 f(x_45)
   + 0.741629683938456 f(x_46) + 0.5317259235208843 f(x_47)
   + 0.437113851329668 f(x_48) + 0.6723356724016567 f(x_49)
   + 0.3420486981879058 f(x_50) + 0.7482009158987607 f(x_51)
   + 0.6761234300746051 f(x_52) + 0.3258781403082777 f(x_53)
   + 0.2516156625940106 f(x_54) + 0.5833254806692848 f(x_55)
   + 0.3385680626378022 f(x_56) + 0.486428078884673 f(x_57)
   + 0.5981608670209806 f(x_58) + 0.5661740545133029 f(x_59)
   + 0.4977758279437813 f(x_60) + 0.4530129921896871 f(x_61)
   + 0.7417717418471035 f(x_62) + 0.3381687811047528 f(x_63)
   + 0.6125810075463889 f(x_64) + 0.595438600462848 f(x_65)
   + 0.5264920087162988 f(x_66) + 0.5393633065060432 f(x_67)
   + 0.3342897815062092 f(x_68) + 0.471151897190438 f(x_69)
   + 0.5893019519300817 f(x_70) + 0.6589892461353486 f(x_71)
   + 0.5396501040430687 f(x_72) + 0.4190546438529784 f(x_73)
   + 0.5982862301970954 f(x_74) + 0.5213838154810595 f(x_75)
   + 0.3855747396407423 f(x_76) + 0.7316938987657884 f(x_77)
   + 0.2991370270551222 f(x_78) + 0.7360149857754701 f(x_79)
   + 0.6751139689958672 f(x_80) + 0.7413159052865961 f(x_81)
   + 0.7320970279110706 f(x_82) + 0.698047070726983 f(x_83)
   + 0.4388727588834238 f(x_84) + 0.7026971362230439 f(x_85)
   + 0.697383792546588 f(x_86) + 0.4201963189842198 f(x_87)
   + 0.4749522297919558 f(x_88) + 0.6097974056871661 f(x_89)
   + 0.4017386630828311 f(x_90) + 0.4787779054935503 f(x_91)
   + 0.4077545512161792 f(x_92) + 0.7425963643907993 f(x_93)
   + 0.3113893247868964 f(x_94) + 0.3358204009249744 f(x_95)
   + 0.3545043778931224 f(x_96) + 0.3474289891278386 f(x_97)
   + 0.5317071089599643 f(x_98) + 0.7324710274854604 f(x_99)
Subject To
 constr_x_0: - x_0 + f(x_0) = 0
 constr_x_1: - x_1 + f(x_1) = 0
 constr_x_2: - x_2 + f(x_2) = 0
 constr_x_3: - x_3 + f(x_3) = 0
 constr_x_4: - x_4 + f(x_4) = 0
 constr_x_5: - x_5 + f(x_5) = 0
 constr_x_6: - x_6 + f(x_6) = 0
 constr_x_7: - x_7 + f(x_7) = 0
 constr_x_8: - x_8 + f(x_8) = 0
 constr_x_9: - x_9 + f(x_9) = 0
 constr_x_10: - x_10 + f(x_10) = 0
 constr_x_11: - x_11 + f(x_11) = 0
 constr_x_12: - x_12 + f(x_12) = 0
 constr_x_13: - x_13 + f(x_13) = 0
 constr_x_14: - x_14 + f(x_14) = 0
 constr_x_15: - x_15 + f(x_15) = 0
 constr_x_16: - x_16 + f(x_16) = 0
 constr_x_17: - x_17 + f(x_17) = 0
 constr_x_18: - x_18 + f(x_18) = 0
 constr_x_19: - x_19 + f(x_19) = 0
 constr_x_20: - x_20 + f(x_20) = 0
 constr_x_21: - x_21 + f(x_21) = 0
 constr_x_22: - x_22 + f(x_22) = 0
 constr_x_23: - x_23 + f(x_23) = 0
 constr_x_24: - x_24 + f(x_24) = 0
 constr_x_25: - x_25 + f(x_25) = 0
 constr_x_26: - x_26 + f(x_26) = 0
 constr_x_27: - x_27 + f(x_27) = 0
 constr_x_28: - x_28 + f(x_28) = 0
 constr_x_29: - x_29 + f(x_29) = 0
 constr_x_30: - x_30 + f(x_30) = 0
 constr_x_31: - x_31 + f(x_31) = 0
 constr_x_32: - x_32 + f(x_32) = 0
 constr_x_33: - x_33 + f(x_33) = 0
 constr_x_34: - x_34 + f(x_34) = 0
 constr_x_35: - x_35 + f(x_35) = 0
 constr_x_36: - x_36 + f(x_36) = 0
 constr_x_37: - x_37 + f(x_37) = 0
 constr_x_38: - x_38 + f(x_38) = 0
 constr_x_39: - x_39 + f(x_39) = 0
 constr_x_40: - x_40 + f(x_40) = 0
 constr_x_41: - x_41 + f(x_41) = 0
 constr_x_42: - x_42 + f(x_42) = 0
 constr_x_43: - x_43 + f(x_43) = 0
 constr_x_44: - x_44 + f(x_44) = 0
 constr_x_45: - x_45 + f(x_45) = 0
 constr_x_46: - x_46 + f(x_46) = 0
 constr_x_47: - x_47 + f(x_47) = 0
 constr_x_48: - x_48 + f(x_48) = 0
 constr_x_49: - x_49 + f(x_49) = 0
 constr_x_50: - x_50 + f(x_50) = 0
 constr_x_51: - x_51 + f(x_51) = 0
 constr_x_52: - x_52 + f(x_52) = 0
 constr_x_53: - x_53 + f(x_53) = 0
 constr_x_54: - x_54 + f(x_54) = 0
 constr_x_55: - x_55 + f(x_55) = 0
 constr_x_56: - x_56 + f(x_56) = 0
 constr_x_57: - x_57 + f(x_57) = 0
 constr_x_58: - x_58 + f(x_58) = 0
 constr_x_59: - x_59 + f(x_59) = 0
 constr_x_60: - x_60 + f(x_60) = 0
 constr_x_61: - x_61 + f(x_61) = 0
 constr_x_62: - x_62 + f(x_62) = 0
 constr_x_63: - x_63 + f(x_63) = 0
 constr_x_64: - x_64 + f(x_64) = 0
 constr_x_65: - x_65 + f(x_65) = 0
 constr_x_66: - x_66 + f(x_66) = 0
 constr_x_67: - x_67 + f(x_67) = 0
 constr_x_68: - x_68 + f(x_68) = 0
 constr_x_69: - x_69 + f(x_69) = 0
 constr_x_70: - x_70 + f(x_70) = 0
 constr_x_71: - x_71 + f(x_71) = 0
 constr_x_72: - x_72 + f(x_72) = 0
 constr_x_73: - x_73 + f(x_73) = 0
 constr_x_74: - x_74 + f(x_74) = 0
 constr_x_75: - x_75 + f(x_75) = 0
 constr_x_76: - x_76 + f(x_76) = 0
 constr_x_77: - x_77 + f(x_77) = 0
 constr_x_78: - x_78 + f(x_78) = 0
 constr_x_79: - x_79 + f(x_79) = 0
 constr_x_80: - x_80 + f(x_80) = 0
 constr_x_81: - x_81 + f(x_81) = 0
 constr_x_82: - x_82 + f(x_82) = 0
 constr_x_83: - x_83 + f(x_83) = 0
 constr_x_84: - x_84 + f(x_84) = 0
 constr_x_85: - x_85 + f(x_85) = 0
 constr_x_86: - x_86 + f(x_86) = 0
 constr_x_87: - x_87 + f(x_87) = 0
 constr_x_88: - x_88 + f(x_88) = 0
 constr_x_89: - x_89 + f(x_89) = 0
 constr_x_90: - x_90 + f(x_90) = 0
 constr_x_91: - x_91 + f(x_91) = 0
 constr_x_92: - x_92 + f(x_92) = 0
 constr_x_93: - x_93 + f(x_93) = 0
 constr_x_94: - x_94 + f(x_94) = 0
 constr_x_95: - x_95 + f(x_95) = 0
 constr_x_96: - x_96 + f(x_96) = 0
 constr_x_97: - x_97 + f(x_97) = 0
 constr_x_98: - x_98 + f(x_98) = 0
 constr_x_99: - x_99 + f(x_99) = 0
 R100: x_0 + x_1 + x_2 + x_3 + x_4 + x_5 + x_6 + x_7 + x_8 + x_9 + x_10
   + x_11 + x_12 + x_13 + x_14 + x_15 + x_16 + x_17 + x_18 + x_19 + x_20
   + x_21 + x_22 + x_23 + x_24 + x_25 + x_26 + x_27 + x_28 + x_29 + x_30
   + x_31 + x_32 + x_33 + x_34 + x_35 + x_36 + x_37 + x_38 + x_39 + x_40
   + x_41 + x_42 + x_43 + x_44 + x_45 + x_46 + x_47 + x_48 + x_49 + x_50
   + x_51 + x_52 + x_53 + x_54 + x_55 + x_56 + x_57 + x_58 + x_59 + x_60
   + x_61 + x_62 + x_63 + x_64 + x_65 + x_66 + x_67 + x_68 + x_69 + x_70
   + x_71 + x_72 + x_73 + x_74 + x_75 + x_76 + x_77 + x_78 + x_79 + x_80
   + x_81 + x_82 + x_83 + x_84 + x_85 + x_86 + x_87 + x_88 + x_89 + x_90
   + x_91 + x_92 + x_93 + x_94 + x_95 + x_96 + x_97 + x_98 + x_99 = 5
Bounds
 x_0 <= 5
 x_1 <= 5
 x_2 <= 5
 x_3 <= 5
 x_4 <= 5
 x_5 <= 5
 x_6 <= 5
 x_7 <= 5
 x_8 <= 5
 x_9 <= 5
 x_10 <= 5
 x_11 <= 5
 x_12 <= 5
 x_13 <= 5
 x_14 <= 5
 x_15 <= 5
 x_16 <= 5
 x_17 <= 5
 x_18 <= 5
 x_19 <= 5
 x_20 <= 5
 x_21 <= 5
 x_22 <= 5
 x_23 <= 5
 x_24 <= 5
 x_25 <= 5
 x_26 <= 5
 x_27 <= 5
 x_28 <= 5
 x_29 <= 5
 x_30 <= 5
 x_31 <= 5
 x_32 <= 5
 x_33 <= 5
 x_34 <= 5
 x_35 <= 5
 x_36 <= 5
 x_37 <= 5
 x_38 <= 5
 x_39 <= 5
 x_40 <= 5
 x_41 <= 5
 x_42 <= 5
 x_43 <= 5
 x_44 <= 5
 x_45 <= 5
 x_46 <= 5
 x_47 <= 5
 x_48 <= 5
 x_49 <= 5
 x_50 <= 5
 x_51 <= 5
 x_52 <= 5
 x_53 <= 5
 x_54 <= 5
 x_55 <= 5
 x_56 <= 5
 x_57 <= 5
 x_58 <= 5
 x_59 <= 5
 x_60 <= 5
 x_61 <= 5
 x_62 <= 5
 x_63 <= 5
 x_64 <= 5
 x_65 <= 5
 x_66 <= 5
 x_67 <= 5
 x_68 <= 5
 x_69 <= 5
 x_70 <= 5
 x_71 <= 5
 x_72 <= 5
 x_73 <= 5
 x_74 <= 5
 x_75 <= 5
 x_76 <= 5
 x_77 <= 5
 x_78 <= 5
 x_79 <= 5
 x_80 <= 5
 x_81 <= 5
 x_82 <= 5
 x_83 <= 5
 x_84 <= 5
 x_85 <= 5
 x_86 <= 5
 x_87 <= 5
 x_88 <= 5
 x_89 <= 5
 x_90 <= 5
 x_91 <= 5
 x_92 <= 5
 x_93 <= 5
 x_94 <= 5
 x_95 <= 5
 x_96 <= 5
 x_97 <= 5
 x_98 <= 5
 x_99 <= 5
Generals
 x_0 x_1 x_2 x_3 x_4 x_5 x_6 x_7 x_8 x_9 x_10 x_11 x_12 x_13 x_14 x_15 x_16
 x_17 x_18 x_19 x_20 x_21 x_22 x_23 x_24 x_25 x_26 x_27 x_28 x_29 x_30 x_31
 x_32 x_33 x_34 x_35 x_36 x_37 x_38 x_39 x_40 x_41 x_42 x_43 x_44 x_45 x_46
 x_47 x_48 x_49 x_50 x_51 x_52 x_53 x_54 x_55 x_56 x_57 x_58 x_59 x_60 x_61
 x_62 x_63 x_64 x_65 x_66 x_67 x_68 x_69 x_70 x_71 x_72 x_73 x_74 x_75 x_76
 x_77 x_78 x_79 x_80 x_81 x_82 x_83 x_84 x_85 x_86 x_87 x_88 x_89 x_90 x_91
 x_92 x_93 x_94 x_95 x_96 x_97 x_98 x_99
End
